  Job Started  at 11:59.54  2nd June       2020

  Number of CPUs =     1

  Total number of configurations input =      1

*  Input for Configuration =   1                                               *

  Formula = O19C14Fe3H14F

  Number of irreducible atoms/shells =      51

  Total number atoms/shells =      51

  Dimensionality = 3               :  Bulk

  Cartesian lattice vectors (Angstroms) :

       30.000000    0.000000    0.000000
        0.000000   30.000000    0.000000
        0.000000    0.000000   30.000000

  Cell parameters (Angstroms/Degrees):

  a =      30.0000    alpha =  90.0000
  b =      30.0000    beta  =  90.0000
  c =      30.0000    gamma =  90.0000

  Initial cell volume =       27000.000000 Angs**3

  Temperature of configuration =  0.000     K

  Pressure of configuration =         0.000 GPa

  Fractional coordinates of asymmetric unit :

   No.  Atomic       x           y          z         Charge      Occupancy
        Label      (Frac)      (Frac)     (Frac)        (e)         (Frac)
      1 O1    c    0.547900    0.492430    0.626630     0.00000    1.000000
      2 O1    c    0.474570 *  0.504670 *  0.650830 *   0.00000    1.000000
      3 C2    c    0.517410 *  0.483180 *  0.665210 *   0.00000    1.000000
      4 Fe3   c    0.437130 *  0.523600 *  0.603260 *   0.00000    1.000000
      5 O1    c    0.401700 *  0.544270 *  0.556460 *   0.00000    1.000000
      6 C2    c    0.386530 *  0.528370 *  0.520530 *   0.00000    1.000000
      7 O1    c    0.401700 *  0.492430 *  0.504630 *   0.00000    1.000000
      8 O1    c    0.547900 *  0.476800 *  0.501930 *   0.00000    1.000000
      9 O1    c    0.474570 *  0.464570 *  0.477730 *   0.00000    1.000000
     10 O1    c    0.648800 *  0.571130 *  0.418130 *   0.00000    1.000000
     11 O4    c    0.630900 *  0.594670 *  0.341460 *   0.00000    1.000000
     12 O1    c    0.429330 *  0.496470 *  0.321360 *   0.00000    1.000000
     13 O4    c    0.473630 *  0.550770 *  0.278630 *   0.00000    1.000000
     14 C5    c    0.549830 *  0.540100 *  0.341090 *   0.00000    1.000000
     15 C5    c    0.496300 *  0.491970 *  0.388990 *   0.00000    1.000000
     16 C5    c    0.577970 *  0.545970 *  0.382890 *   0.00000    1.000000
     17 C5    c    0.526870 *  0.501000 *  0.427630 *   0.00000    1.000000
     18 C5    c    0.572100 *  0.518370 *  0.422490 *   0.00000    1.000000
     19 C5    c    0.504630 *  0.518370 *  0.348430 *   0.00000    1.000000
     20 C2    c    0.515870 *  0.480470 *  0.471630 *   0.00000    1.000000
     21 C2    c    0.475830 *  0.509200 *  0.306930 *   0.00000    1.000000
     22 C2    c    0.611670 *  0.584500 *  0.386860 *   0.00000    1.000000
     23 O1    c    0.474570 *  0.571170 *  0.584330 *   0.00000    1.000000
     24 Fe3   c    0.537370 *  0.484630 *  0.564290 *   0.00000    1.000000
     25 O7    c    0.471870 *  0.484630 *  0.564290 *   0.00000    1.000000
     26 Fe3   c    0.437130 *  0.445630 *  0.525290 *   0.00000    1.000000
     27 O1    c    0.401700 *  0.476800 *  0.623930 *   0.00000    1.000000
     28 O4    c    0.402430 *  0.408830 *  0.488490 *   0.00000    1.000000
     29 O1    c    0.401700 *  0.424970 *  0.572090 *   0.00000    1.000000
     30 C2    c    0.386530 *  0.440870 *  0.608030 *   0.00000    1.000000
     31 O1    c    0.474570 *  0.398070 *  0.544230 *   0.00000    1.000000
     32 O4    c    0.603630 *  0.484630 *  0.564290 *   0.00000    1.000000
     33 O1    c    0.547900 *  0.546970 *  0.572090 *   0.00000    1.000000
     34 O1    c    0.547900 *  0.422270 *  0.556460 *   0.00000    1.000000
     35 C2    c    0.515870 *  0.577270 *  0.568430 *   0.00000    1.000000
     36 C2    c    0.515870 *  0.391970 *  0.560130 *   0.00000    1.000000
     37 H8    c    0.633170 *  0.456970 *  0.593030 *   0.00000    1.000000
     38 H8    c    0.633170 *  0.509930 *  0.537630 *   0.00000    1.000000
     39 H8    c    0.471030 *  0.468700 *  0.390760 *   0.00000    1.000000
     40 H8    c    0.597470 *  0.511730 *  0.444760 *   0.00000    1.000000
     41 H8    c    0.560630 *  0.550130 *  0.310030 *   0.00000    1.000000
     42 H8    c    0.378000 *  0.360970 *  0.500330 *   0.00000    1.000000
     43 H8    c    0.387370 *  0.416530 *  0.436730 *   0.00000    1.000000
     44 H8    c    0.655170 *  0.622470 *  0.344190 *   0.00000    1.000000
     45 H8    c    0.453000 *  0.544170 *  0.248630 *   0.00000    1.000000
     46 F9    c    0.389800 *  0.557230 *  0.634630 *   0.00000    1.000000
     47 H8    c    0.505650 *  0.374530 *  0.592300 *   0.00000    1.000000
     48 H8    c    0.365930 *  0.550030 *  0.497060 *   0.00000    1.000000
     49 H8    c    0.359430 *  0.416880 *  0.619620 *   0.00000    1.000000
     50 H8    c    0.530570 *  0.500710 *  0.696250 *   0.00000    1.000000
     51 H8    c    0.515220 *  0.607660 *  0.545630 *   0.00000    1.000000

  Initial Cartesian coordinates :

   No.  Atomic        x           y           z          Charge   Occupancy
        Label       (Angs)      (Angs)      (Angs)        (e)       (Frac)
      1 O1    c    16.437000   14.772900   18.798900    0.000000    1.000000
      2 O1    c    14.237100   15.140100   19.524900    0.000000    1.000000
      3 C2    c    15.522300   14.495400   19.956300    0.000000    1.000000
      4 Fe3   c    13.113900   15.708000   18.097800    0.000000    1.000000
      5 O1    c    12.051000   16.328100   16.693800    0.000000    1.000000
      6 C2    c    11.595900   15.851100   15.615900    0.000000    1.000000
      7 O1    c    12.051000   14.772900   15.138900    0.000000    1.000000
      8 O1    c    16.437000   14.304000   15.057900    0.000000    1.000000
      9 O1    c    14.237100   13.937100   14.331900    0.000000    1.000000
     10 O1    c    19.464000   17.133900   12.543900    0.000000    1.000000
     11 O4    c    18.927000   17.840100   10.243800    0.000000    1.000000
     12 O1    c    12.879900   14.894100    9.640800    0.000000    1.000000
     13 O4    c    14.208900   16.523100    8.358900    0.000000    1.000000
     14 C5    c    16.494900   16.203000   10.232700    0.000000    1.000000
     15 C5    c    14.889000   14.759100   11.669700    0.000000    1.000000
     16 C5    c    17.339100   16.379100   11.486700    0.000000    1.000000
     17 C5    c    15.806100   15.030000   12.828900    0.000000    1.000000
     18 C5    c    17.163000   15.551100   12.674700    0.000000    1.000000
     19 C5    c    15.138900   15.551100   10.452900    0.000000    1.000000
     20 C2    c    15.476100   14.414100   14.148900    0.000000    1.000000
     21 C2    c    14.274900   15.276000    9.207900    0.000000    1.000000
     22 C2    c    18.350100   17.535000   11.605800    0.000000    1.000000
     23 O1    c    14.237100   17.135100   17.529900    0.000000    1.000000
     24 Fe3   c    16.121100   14.538900   16.928700    0.000000    1.000000
     25 O7    c    14.156100   14.538900   16.928700    0.000000    1.000000
     26 Fe3   c    13.113900   13.368900   15.758700    0.000000    1.000000
     27 O1    c    12.051000   14.304000   18.717900    0.000000    1.000000
     28 O4    c    12.072900   12.264900   14.654700    0.000000    1.000000
     29 O1    c    12.051000   12.749100   17.162700    0.000000    1.000000
     30 C2    c    11.595900   13.226100   18.240900    0.000000    1.000000
     31 O1    c    14.237100   11.942100   16.326900    0.000000    1.000000
     32 O4    c    18.108900   14.538900   16.928700    0.000000    1.000000
     33 O1    c    16.437000   16.409100   17.162700    0.000000    1.000000
     34 O1    c    16.437000   12.668100   16.693800    0.000000    1.000000
     35 C2    c    15.476100   17.318100   17.052900    0.000000    1.000000
     36 C2    c    15.476100   11.759100   16.803900    0.000000    1.000000
     37 H8    c    18.995100   13.709100   17.790900    0.000000    1.000000
     38 H8    c    18.995100   15.297900   16.128900    0.000000    1.000000
     39 H8    c    14.130900   14.061000   11.722800    0.000000    1.000000
     40 H8    c    17.924100   15.351900   13.342800    0.000000    1.000000
     41 H8    c    16.818900   16.503900    9.300900    0.000000    1.000000
     42 H8    c    11.340000   10.829100   15.009900    0.000000    1.000000
     43 H8    c    11.621100   12.495900   13.101900    0.000000    1.000000
     44 H8    c    19.655100   18.674100   10.325700    0.000000    1.000000
     45 H8    c    13.590000   16.325100    7.458900    0.000000    1.000000
     46 F9    c    11.694000   16.716900   19.038900    0.000000    1.000000
     47 H8    c    15.169500   11.235900   17.769000    0.000000    1.000000
     48 H8    c    10.977900   16.500900   14.911800    0.000000    1.000000
     49 H8    c    10.782900   12.506400   18.588600    0.000000    1.000000
     50 H8    c    15.917100   15.021300   20.887500    0.000000    1.000000
     51 H8    c    15.456600   18.229800   16.368900    0.000000    1.000000

  Molecule list generated from bond lengths :

  Total number of molecules =     1

Molecule No./:  Atoms
Periodicity  :
     1  0    : O1   c     1 O1   c     2 C2   c     3 Fe3  c     4 O1   c     5
             : C2   c     6 O1   c     7 O1   c     8 O1   c     9 O1   c    10
             : O4   c    11 O1   c    12 O4   c    13 C5   c    14 C5   c    15
             : C5   c    16 C5   c    17 C5   c    18 C5   c    19 C2   c    20
             : C2   c    21 C2   c    22 O1   c    23 Fe3  c    24 O7   c    25
             : Fe3  c    26 O1   c    27 O4   c    28 O1   c    29 C2   c    30
             : O1   c    31 O4   c    32 O1   c    33 O1   c    34 C2   c    35
             : C2   c    36 H8   c    37 H8   c    38 H8   c    39 H8   c    40
             : H8   c    41 H8   c    42 H8   c    43 H8   c    44 H8   c    45
             : F9   c    46 H8   c    47 H8   c    48 H8   c    49 H8   c    50
             : H8   c    51

*  General input information                                                   *

  Species output for all configurations :

  Species    Type    Atomic    Atomic    Charge       Radii (Angs)     Library
                     Number     Mass       (e)     Cova   Ionic  VDW   Symbol
    Fe3      Core       26      55.85   0.000000   1.340  0.000  2.000 Fe6+3
    H8       Core        1       1.01   0.000000   0.370  0.000  1.080 H_
    O7       Core        8      16.00   0.000000   0.730  0.000  1.360 O_2_z
    O1       Core        8      16.00   0.000000   0.730  0.000  1.360 O_2
    F9       Core        9      19.00   0.000000   0.710  0.000  1.300 F_
    C2       Core        6      12.01   0.000000   0.770  0.000  1.530 C_2
    O4       Core        8      16.00   0.000000   0.730  0.000  1.360 O_3
    C5       Core        6      12.01   0.000000   0.770  0.000  1.530 C_R

  Universal Force Field (UFF) species output:

  Species    Type    Radius    Theta    Distance    Energy     Zeta     Zeff
                     (Ang)   (degrees)   (Ang)       (eV)               (e)
    H8       Core    0.3540   180.000     2.8860    0.0019   12.0000   0.7120
[...]
  Monopole - monopole (real) =           0.00000000 eV
  Monopole - monopole (recip)=           0.00000000 eV
  Monopole - monopole (total)=           0.00000000 eV
  Total lattice energy       =          66.75052514 eV
  Total lattice energy       =            6440.4053 kJ/(mole unit cells)

  Number of variables =      153

  Maximum number of calculations  =          1000
  Maximum Hessian update interval =            10
  Maximum step size               =   1.000000000
  Maximum parameter tolerance     =   0.000010000
  Maximum function  tolerance     =   0.000010000
  Maximum gradient  tolerance     =   0.001000000
  Maximum gradient  component     =   0.010000000

  Symmetry not applied to optimisation

  Cell parameters to be optimised using strains

  Newton-Raphson optimiser to be used

  BFGS hessian update to be used

  Lower half triangular hessian to be used

  Start of bulk optimisation :

  ** Hessian calculated **
  ** Hessian calculated **
  ** Hessian calculated **
  ** Hessian calculated **
  ** Hessian calculated **
  ** Hessian calculated **
  ** Hessian calculated **
  ** Hessian calculated **
  ** Hessian calculated **
  ** Hessian calculated **
  ** Hessian calculated **
  ** Hessian calculated **
  ** Hessian calculated **
  ** Hessian calculated **
  ** Hessian calculated **
  ** Hessian calculated **
  ** Hessian calculated **
  ** Hessian calculated **
  ** Hessian calculated **
  ** Hessian calculated **
  ** Hessian calculated **
  ** Hessian calculated **
  ** Hessian calculated **
  ** Hessian calculated **
  ** Hessian calculated **
  ** Hessian calculated **
  ** Hessian calculated **
  ** Hessian calculated **
  ** Hessian calculated **
  ** Hessian calculated **
  ** Hessian calculated **
  ** Hessian calculated **
  ** Hessian calculated **
  ** Hessian calculated **
  ** Hessian calculated **
  ** Hessian calculated **
  ** Hessian calculated **
  ** Hessian calculated **
  ** Hessian calculated **
  ** Hessian calculated **
  ** Hessian calculated **
  ** Hessian calculated **
  ** Hessian calculated **
  ** Hessian calculated **
  ** Hessian calculated **
  ** Hessian calculated **
  ** Hessian calculated **
  ** Hessian calculated **
  ** Hessian calculated **
  ** Hessian calculated **
  ** Hessian calculated **
  ** Hessian calculated **
  ** Hessian calculated **
  ** Hessian calculated **
  ** Hessian calculated **
  ** Hessian calculated **
  ** Hessian calculated **
  ** Hessian calculated **
  ** Hessian calculated **
  ** Hessian calculated **
[...]
  ** Hessian calculated **
  ** Hessian calculated **
  ** Hessian calculated **
  ** Hessian calculated **
  ** Hessian calculated **
  ** Hessian calculated **
  ** Hessian calculated **
  ** Hessian calculated **
  ** Hessian calculated **
  ** Hessian calculated **
  ** Hessian calculated **
  ** Hessian calculated **
  ** Hessian calculated **
  ** Hessian calculated **
  ** Hessian calculated **

  XYZ File written as MIL-100_noDefects.xyz

  **** Maximum number of function calls has been reached ****

  Final energy =       4.52125459 eV
  Final Gnorm  =       0.00111146

  Components of energy :

  Interatomic potentials     =           0.72270878 eV
  Three-body potentials      =           3.74554981 eV
  Four-body potentials       =           0.05299560 eV
  Improper torsions          =           0.00000000 eV
  Out of plane potentials    =           0.00000040 eV
  Monopole - monopole (real) =           0.00000000 eV
  Monopole - monopole (recip)=           0.00000000 eV
  Monopole - monopole (total)=           0.00000000 eV
  Total lattice energy       =           4.52125459 eV
  Total lattice energy       =             436.2320 kJ/(mole unit cells)

  Final fractional coordinates of atoms :

   No.  Atomic        x           y          z          Radius
        Label       (Frac)      (Frac)     (Frac)       (Angs)
     1  O1    c     0.547900    0.492430    0.626630    0.000000
     2  O1    c     0.480751    0.506705    0.656526    0.000000
     3  C2    c     0.522367    0.495837    0.658376    0.000000
     4  Fe3   c     0.437715    0.525526    0.609504    0.000000
     5  O1    c     0.390830    0.548104    0.567233    0.000000
     6  C2    c     0.375646    0.533616    0.532718    0.000000
     7  O1    c     0.390065    0.498238    0.514934    0.000000
     8  O1    c     0.539779    0.503674    0.499465    0.000000
     9  O1    c     0.473594    0.477737    0.475937    0.000000
    10  O1    c     0.652574    0.569690    0.399875    0.000000
    11  O4    c     0.637460    0.573350    0.329364    0.000000
    12  O1    c     0.438062    0.484089    0.323304    0.000000
    13  O4    c     0.489123    0.514165    0.276415    0.000000
    14  C5    c     0.550517    0.531766    0.344612    0.000000
    15  C5    c     0.495831    0.499850    0.392906    0.000000
    16  C5    c     0.580583    0.540428    0.377749    0.000000
    17  C5    c     0.525428    0.508234    0.426532    0.000000
    18  C5    c     0.567760    0.528553    0.418581    0.000000
    19  C5    c     0.508082    0.511497    0.351868    0.000000
    20  C2    c     0.512146    0.495812    0.469865    0.000000
    21  C2    c     0.476632    0.502535    0.316548    0.000000
    22  C2    c     0.625334    0.561873    0.369629    0.000000
    23  O1    c     0.472716    0.584129    0.598988    0.000000
    24  Fe3   c     0.539905    0.497696    0.563194    0.000000
    25  O7    c     0.472526    0.491545    0.566398    0.000000
    26  Fe3   c     0.439929    0.451628    0.526321    0.000000
    27  O1    c     0.398584    0.470970    0.625143    0.000000
    28  O4    c     0.405771    0.410005    0.484347    0.000000
    29  O1    c     0.402828    0.421509    0.572643    0.000000
    30  C2    c     0.389037    0.433401    0.608483    0.000000
    31  O1    c     0.486081    0.400375    0.533050    0.000000
    32  O4    c     0.610356    0.504187    0.559677    0.000000
    33  O1    c     0.537065    0.566521    0.565590    0.000000
    34  O1    c     0.549541    0.429504    0.560364    0.000000
    35  C2    c     0.509644    0.594861    0.581133    0.000000
    36  C2    c     0.526157    0.396586    0.547208    0.000000
    37  H8    c     0.622819    0.477634    0.574498    0.000000
    38  H8    c     0.618012    0.529985    0.577989    0.000000
    39  H8    c     0.463144    0.484204    0.398672    0.000000
    40  H8    c     0.590819    0.535170    0.444250    0.000000
    41  H8    c     0.560178    0.540832    0.313067    0.000000
    42  H8    c     0.400980    0.381210    0.499336    0.000000
    43  H8    c     0.428318    0.402625    0.462406    0.000000
    44  H8    c     0.668205    0.587074    0.330554    0.000000
    45  H8    c     0.463770    0.505525    0.257589    0.000000
    46  F9    c     0.405310    0.557151    0.649636    0.000000
    47  H8    c     0.541281    0.363285    0.548114    0.000000
    48  H8    c     0.348782    0.552546    0.517535    0.000000
    49  H8    c     0.367861    0.410120    0.625891    0.000000
    50  H8    c     0.536973    0.489075    0.688841    0.000000
    51  H8    c     0.518260    0.630308    0.579050    0.000000

  Final Cartesian coordinates :

   No.  Atomic        x           y           z          Charge   Occupancy
        Label       (Angs)      (Angs)      (Angs)        (e)       (Frac)
     1  O1    c    16.107608   14.615376   20.057104    0.000000    1.000000
     2  O1    c    14.133504   15.039055   21.014003    0.000000    1.000000
     3  C2    c    15.356957   14.716504   21.073226    0.000000    1.000000
     4  Fe3   c    12.868305   15.597661   19.508927    0.000000    1.000000
     5  O1    c    11.489933   16.267801   18.155925    0.000000    1.000000
     6  C2    c    11.043537   15.837782   17.051169    0.000000    1.000000
     7  O1    c    11.467459   14.787772   16.481959    0.000000    1.000000
     8  O1    c    15.868865   14.949108   15.986834    0.000000    1.000000
     9  O1    c    13.923109   14.179288   15.233741    0.000000    1.000000
    10  O1    c    19.184911   16.908449   12.799142    0.000000    1.000000
    11  O4    c    18.740555   17.017087   10.542254    0.000000    1.000000
    12  O1    c    12.878506   14.367805   10.348281    0.000000    1.000000
    13  O4    c    14.379646   15.260472    8.847456    0.000000    1.000000
    14  C5    c    16.184555   15.782878   11.030312    0.000000    1.000000
    15  C5    c    14.576838   14.835615   12.576097    0.000000    1.000000
    16  C5    c    17.068455   16.039968   12.090936    0.000000    1.000000
    17  C5    c    15.446954   15.084450   13.652397    0.000000    1.000000
    18  C5    c    16.691470   15.687510   13.397907    0.000000    1.000000
    19  C5    c    14.937002   15.181283   11.262545    0.000000    1.000000
    20  C2    c    15.056487   14.715761   15.039402    0.000000    1.000000
    21  C2    c    14.012412   14.915302   10.132040    0.000000    1.000000
    22  C2    c    18.384084   16.676458   11.831058    0.000000    1.000000
    23  O1    c    13.897286   17.337008   19.172353    0.000000    1.000000
    24  Fe3   c    15.872577   14.771681   18.026657    0.000000    1.000000
    25  O7    c    13.891698   14.589120   18.129202    0.000000    1.000000
    26  Fe3   c    12.933392   13.404378   16.846417    0.000000    1.000000
    27  O1    c    11.717889   13.978434   20.009520    0.000000    1.000000
    28  O4    c    11.929170   12.168994   15.502937    0.000000    1.000000
    29  O1    c    11.842661   12.510435   18.329081    0.000000    1.000000
    30  C2    c    11.437223   12.863383   19.476273    0.000000    1.000000
    31  O1    c    14.290192   11.883176   17.061819    0.000000    1.000000
    32  O4    c    17.943733   14.964310   17.914095    0.000000    1.000000
    33  O1    c    15.789079   16.814393   18.103351    0.000000    1.000000
    34  O1    c    16.155845   12.747713   17.936084    0.000000    1.000000
    35  C2    c    14.982933   17.655529   18.600826    0.000000    1.000000
    36  C2    c    15.468401   11.770717   17.514973    0.000000    1.000000
    37  H8    c    18.310149   14.176219   18.388481    0.000000    1.000000
    38  H8    c    18.168812   15.730008   18.500198    0.000000    1.000000
    39  H8    c    13.615881   14.371218   12.760661    0.000000    1.000000
    40  H8    c    17.369385   15.883897   14.219492    0.000000    1.000000
    41  H8    c    16.468571   16.051958   10.020614    0.000000    1.000000
    42  H8    c    11.788349   11.314346   15.982682    0.000000    1.000000
    43  H8    c    12.592050   11.949951   14.800647    0.000000    1.000000
    44  H8    c    19.644441   17.424412   10.580327    0.000000    1.000000
    45  H8    c    13.634292   15.004049    8.244868    0.000000    1.000000
    46  F9    c    11.915640   16.536301   20.793462    0.000000    1.000000
    47  H8    c    15.913021   10.782331   17.543980    0.000000    1.000000
    48  H8    c    10.253788   16.399617   16.565205    0.000000    1.000000
    49  H8    c    10.814685   12.172393   20.033461    0.000000    1.000000
    50  H8    c    15.786382   14.515797   22.048334    0.000000    1.000000
    51  H8    c    15.236236   18.707595   18.534162    0.000000    1.000000

  Final Cartesian lattice vectors (Angstroms) :

       29.398811    0.000000    0.000000
        0.000000   29.680109    0.000000
        0.000000    0.000000   32.007890

  Final cell parameters and derivatives :

       a           29.398811 Angstrom     dE/de1(xx)    -0.003210 eV/strain
       b           29.680109 Angstrom     dE/de2(yy)    -0.001818 eV/strain
       c           32.007890 Angstrom     dE/de3(zz)     0.000737 eV/strain
       alpha       90.000000 Degrees      dE/de4(yz)     0.000000 eV/strain
       beta        90.000000 Degrees      dE/de5(xz)     0.000000 eV/strain
       gamma       90.000000 Degrees      dE/de6(xy)     0.000000 eV/strain

  Primitive cell volume =         27928.800893 Angs**3

  Density of cell =      0.040005 g/cm**3

  Non-primitive cell volume =         27928.800893 Angs**3

  Final internal derivatives :

   No.  Atomic          a             b             c           Radius
        Label          (eV)          (eV)          (eV)        (eV/Angs)
      1 O1    c       0.000000      0.000000      0.000000      0.000000
      2 O1    c       0.011655     -0.014440     -0.010131      0.000000
      3 C2    c      -0.000775     -0.013610      0.001576      0.000000
      4 Fe3   c      -0.019288     -0.016581      0.003070      0.000000
      5 O1    c       0.013755     -0.005838     -0.010769      0.000000
      6 C2    c       0.001322     -0.012860      0.000879      0.000000
      7 O1    c       0.010856     -0.002396      0.006690      0.000000
      8 O1    c       0.006184     -0.006496      0.005122      0.000000
      9 O1    c      -0.014977     -0.005801     -0.015730      0.000000
     10 O1    c       0.021103      0.008265      0.016014      0.000000
     11 O4    c       0.013938      0.009340     -0.003254      0.000000
     12 O1    c       0.024636      0.015435      0.001180      0.000000
     13 O4    c       0.014315      0.003437     -0.034181      0.000000
     14 C5    c      -0.020890     -0.013411      0.034202      0.000000
     15 C5    c      -0.011401     -0.000687      0.000330      0.000000
     16 C5    c       0.012002      0.014541      0.016920      0.000000
     17 C5    c       0.018145      0.004193      0.009026      0.000000
     18 C5    c      -0.018252     -0.016936     -0.000731      0.000000
     19 C5    c       0.015538      0.017465     -0.016246      0.000000
     20 C2    c      -0.006610      0.008371      0.000046      0.000000
     21 C2    c      -0.021007     -0.020170     -0.010423      0.000000
     22 C2    c      -0.037856     -0.022102      0.003430      0.000000
     23 O1    c       0.007694      0.003549      0.018340      0.000000
     24 Fe3   c       0.026760     -0.008630     -0.005313      0.000000
     25 O7    c      -0.008794      0.001794      0.009275      0.000000
     26 Fe3   c      -0.022779      0.008776      0.031594      0.000000
     27 O1    c      -0.005117     -0.048576     -0.018707      0.000000
     28 O4    c      -0.007601      0.010593     -0.000058      0.000000
     29 O1    c       0.027592     -0.024462     -0.043139      0.000000
     30 C2    c      -0.016913      0.023905      0.013436      0.000000
     31 O1    c       0.009832     -0.009856     -0.013808      0.000000
     32 O4    c      -0.017557     -0.016487     -0.007988      0.000000
     33 O1    c       0.012228      0.004392     -0.005733      0.000000
     34 O1    c       0.005909     -0.024620      0.004350      0.000000
     35 C2    c       0.002197     -0.001680     -0.000778      0.000000
     36 C2    c      -0.007067     -0.018323     -0.001703      0.000000
     37 H8    c       0.004734     -0.016726      0.002800      0.000000
     38 H8    c       0.000984     -0.001235     -0.001562      0.000000
     39 H8    c       0.003610      0.006579     -0.004858      0.000000
     40 H8    c       0.001452     -0.002247      0.002172      0.000000
     41 H8    c       0.003762      0.005942      0.000138      0.000000
     42 H8    c      -0.001629     -0.003590      0.006003      0.000000
     43 H8    c      -0.003847     -0.000686     -0.011369      0.000000
     44 H8    c      -0.014673     -0.008577      0.001090      0.000000
     45 H8    c      -0.022651      0.002821      0.004442      0.000000
     46 F9    c       0.006275      0.010739     -0.004358      0.000000
     47 H8    c      -0.000565      0.014093      0.009189      0.000000
     48 H8    c      -0.002732      0.011553      0.008073      0.000000
     49 H8    c       0.007666      0.009741     -0.005525      0.000000
     50 H8    c      -0.004784      0.004980      0.013478      0.000000
     51 H8    c       0.009438     -0.022516     -0.003860      0.000000
  Maximum abs         0.037856      0.048576      0.043139      0.000000

  Time to end of optimisation =      23.0974 seconds

  Timing analysis for GULP :

  Task / Subroutine                                          Time (Seconds)
  Calculation of real space energy and derivatives                5.0608
  Calculation of three-body energy and derivatives               14.8325
  Calculation of four-body energy and derivatives                 2.9168
  Calculation of molecules and connectivity                       0.0851
  Calculation and manipulation of Hessian matrix                  0.0029
  Calculation of matrix inversion                                 0.0740

  Job Finished at 12:00.17  2nd June       2020